\ This file was automatically generated by Zimpl
\ var x2 >= 0;
\ var x3 >= 0;
\ var x5 >= 0;
\ minimize Z :       12*x2 + 10*x3 + 0*x5;
\ subto c1:      120*x2 + 114*x3 - 1*x5 >= 90;
\ subto c2:     2*x2 + 6*x3 + 0*x5 <= 4;
\Problem name: pp
Minimize
 Z:  +12 x2 +10 x3
Subject to
 c1_1:
  - x5 +114 x3 +120 x2 >= 90
 c2_1:
  +6 x3 +2 x2 <= 4
Bounds
 0 <= x2 <= +inf
 0 <= x3 <= +inf
 0 <= x5 <= +inf
End
